p cnf 228 6
-164 -210 -143 -139 -73 -226 -30 -169 -74 -218 -17 -123 -76 -191 -47 -71 -66 -42 -132 -92 -180 -227 -69 -165 -87 -166 -136 3 4 7 10 11 12 13 14 17 19 21 22 25 27 28 29 30 31 33 34 35 37 40 42 43 44 45 46 47 48 49 50 51 52 53 54 55 56 57 59 60 62 63 64 65 66 67 69 70 71 72 73 74 76 77 81 82 84 85 86 87 88 89 90 91 92 93 94 95 96 97 99 100 101 102 104 105 106 108 109 110 111 112 113 114 116 117 118 119 120 121 122 123 124 127 128 131 132 136 137 138 139 140 142 143 144 146 148 149 150 151 152 155 157 158 159 160 162 163 164 165 166 169 170 171 172 173 174 175 176 177 178 179 180 181 183 184 185 186 188 189 191 192 193 194 195 196 197 198 199 200 201 202 203 204 205 208 209 210 211 212 214 215 216 217 218 219 220 222 224 226 227 228 0
-5 -89 -133 -27 -39 -218 -167 -180 -197 -54 -225 -95 -18 -139 -113 -26 -17 -67 -72 -174 -155 -53 -100 -172 -188 -76 -191 -153 -101 -69 -30 -119 -92 -35 -156 -195 -157 -211 -88 -129 -1 -175 -204 -226 -112 -162 -173 -148 -106 -83 -40 -6 -103 -25 -217 -141 -21 -161 -150 -201 -198 -74 -220 -63 -149 -126 -14 -108 -171 -98 -202 -56 -80 -143 -207 -208 -65 -61 -128 1 2 3 4 5 6 7 9 10 11 12 13 14 15 16 17 18 19 20 21 22 23 25 26 27 28 29 30 31 32 33 34 35 36 37 38 39 40 41 42 43 44 45 46 47 48 49 50 51 52 53 54 55 56 57 58 59 60 61 62 63 64 65 66 67 68 69 70 72 73 74 75 76 77 78 79 80 81 82 83 84 85 86 87 88 89 90 91 92 93 94 95 96 97 98 99 100 101 102 103 104 105 106 107 108 109 110 111 112 113 114 115 116 117 118 119 120 121 122 123 124 125 126 128 129 130 131 132 133 134 135 136 137 138 139 140 141 142 143 144 145 146 147 148 149 150 151 152 153 154 155 156 157 158 159 160 161 162 163 164 165 166 167 168 169 171 172 173 174 175 176 177 178 179 180 181 182 183 184 185 186 187 188 189 190 191 192 193 194 195 196 197 198 199 200 201 202 203 204 205 206 207 208 209 210 211 212 213 215 216 217 218 219 220 221 222 223 224 225 226 227 228 0
-50 -72 -169 -106 -75 -87 -46 -216 -99 -116 -203 -166 -43 -65 -127 -54 -224 -158 -184 -105 -138 -63 -205 -193 -83 -52 -4 -215 -213 4 9 138 10 12 11 142 16 146 23 154 158 166 169 43 46 177 50 51 52 54 184 63 193 65 72 73 203 75 205 211 83 213 87 215 216 95 96 225 224 99 228 105 106 107 109 113 116 122 127 0
-155 -157 -158 -190 -52 -108 -114 -39 -21 -78 -112 -129 -92 -156 -83 -37 -97 -62 -193 -196 -96 -191 -132 -91 -107 -87 -20 -47 -130 -9 -29 -169 -3 -81 -89 -131 -168 -41 -48 -105 -55 -182 -18 -113 -32 -99 -120 -7 -65 -75 -200 -181 -219 -153 -54 -192 -119 -213 -67 -64 -6 -172 -116 -214 -28 -165 -125 -206 -40 -180 -77 -2 -148 1 2 3 6 7 9 12 13 14 17 18 20 21 22 23 24 28 29 31 32 37 38 39 40 41 43 47 48 51 52 54 55 58 59 60 62 63 64 65 66 67 71 72 75 77 78 81 83 86 87 88 89 91 92 93 95 96 97 98 99 100 101 104 105 106 107 108 109 112 113 114 115 116 118 119 120 121 125 128 129 130 131 132 133 135 136 142 143 145 148 151 153 154 155 156 157 158 162 164 165 166 168 169 171 172 173 175 178 180 181 182 183 184 187 188 190 191 192 193 194 196 200 206 207 213 214 215 216 217 219 224 227 228 0
-101 -83 -118 -106 -204 -157 -95 -80 -29 -209 -30 -28 -89 -197 -21 -82 -75 -123 -110 -78 -194 -33 1 12 13 16 17 19 21 23 25 27 28 29 30 33 36 37 41 44 45 46 54 56 60 61 62 63 73 74 75 78 80 81 82 83 84 89 95 98 101 102 106 110 115 116 117 118 119 120 123 124 125 127 130 134 135 142 145 147 149 150 151 153 157 161 163 164 167 169 175 178 179 180 181 182 184 191 192 193 194 195 196 197 198 200 201 204 205 209 213 214 215 217 220 221 224 226 227 0
-10 -92 -126 -67 -69 -200 -141 -97 -62 -110 -36 -107 -87 -219 -71 -117 -205 -24 -42 -100 -176 -111 -53 -6 -66 -89 -61 -166 -157 -139 -109 -32 1 2 4 5 6 7 10 11 13 14 17 18 19 23 24 25 26 27 28 29 30 31 32 34 35 36 38 39 41 42 43 44 46 47 49 52 53 54 55 56 57 58 59 60 61 62 63 64 65 66 67 68 69 70 71 72 73 74 76 78 80 81 82 83 84 85 87 88 89 90 91 92 93 94 95 96 97 98 99 100 101 102 103 104 107 108 109 110 111 113 114 116 117 118 119 120 122 123 124 126 128 129 130 131 132 133 134 135 136 138 139 140 141 142 143 144 145 146 149 150 154 155 157 158 160 161 163 164 165 166 168 169 171 172 173 174 175 176 177 178 180 181 182 183 184 185 186 187 188 189 190 191 192 193 195 197 198 199 200 201 202 203 204 205 206 208 211 212 213 214 216 217 219 220 221 222 224 225 227 228 0
